# 85173
param n := 25;
param s := 1;
set E :=  (0,19) (0,21) (1,2) (1,5) (2,4) (2,7) (2,9) (2,18) (3,6) (3,7) (3,13) (3,14) (4,12) (5,6) (5,21) (5,24) (6,11) (6,19) (6,20) (8,23) (10,19) (12,15) (12,18) (12,22) (13,22) (14,23) (16,17) (17,19) (19,21);
